c n orig vars 106
p cnf 238 692
156 0
-107 207 0
-107 63 0
107 -207 -63 0
108 -85 0
108 -72 0
108 -71 0
108 -61 0
108 -86 0
108 -76 0
108 -75 0
108 -89 0
108 -5 0
108 -8 0
108 -151 0
108 -152 0
108 -163 0
108 -222 0
108 -28 0
108 -25 0
-108 85 72 71 61 86 76 75 89 5 8 151 152 163 222 28 25 0
-109 56 0
109 -56 0
-110 149 0
-110 37 0
110 -149 -37 0
111 -53 0
111 -77 0
111 -52 0
111 -49 0
111 -238 0
111 -237 0
111 -236 0
-111 53 77 52 49 238 237 236 0
112 -7 0
112 -89 0
112 -88 0
112 -87 0
112 -96 0
112 -144 0
112 -130 0
-112 7 89 88 87 96 144 130 0
113 -95 0
113 -79 0
113 -78 0
113 -206 0
-113 95 79 78 206 0
114 -67 0
114 -6 0
114 -5 0
114 -8 0
114 -59 0
114 -107 0
114 -202 0
114 -185 0
-114 67 6 5 8 59 107 202 185 0
-115 53 0
115 -53 0
116 -85 0
116 -72 0
116 -71 0
116 -61 0
116 -86 0
116 -76 0
116 -75 0
116 -89 0
116 -5 0
116 -8 0
116 -110 0
116 -217 0
116 -163 0
116 -222 0
116 -68 0
116 -62 0
-116 85 72 71 61 86 76 75 89 5 8 110 217 163 222 68 62 0
-117 125 0
-117 50 0
117 -125 -50 0
-118 159 0
-118 158 0
118 -159 -158 0
-119 115 0
-119 116 0
119 -115 -116 0
-120 208 0
-120 63 0
120 -208 -63 0
121 -56 0
121 -55 0
121 -51 0
121 -120 0
121 -119 0
121 -118 0
-121 56 55 51 120 119 118 0
-122 142 0
-122 182 0
122 -142 -182 0
-123 148 0
-123 113 0
123 -148 -113 0
124 -53 0
124 -52 0
124 -49 0
124 -238 0
124 -237 0
124 -236 0
-124 53 52 49 238 237 236 0
-125 93 0
125 -93 0
126 -105 0
126 -99 0
-126 105 99 0
127 -98 0
127 -99 0
-127 98 99 0
128 -92 0
128 -99 0
-128 92 99 0
129 -106 0
129 -102 0
-129 106 102 0
-130 232 0
-130 231 0
-130 145 0
-130 126 0
130 -232 -231 -145 -126 0
-131 232 0
-131 231 0
-131 137 0
-131 127 0
131 -232 -231 -137 -127 0
-132 90 0
132 -90 0
-133 232 0
-133 132 0
133 -232 -132 0
-134 177 0
-134 178 0
134 -177 -178 0
-135 232 0
-135 231 0
-135 129 0
-135 128 0
135 -232 -231 -129 -128 0
-136 104 0
136 -104 0
137 -2 0
137 -1 0
-137 2 1 0
-138 10 0
138 -10 0
-139 136 0
-139 9 0
139 -136 -9 0
-140 146 0
-140 147 0
140 -146 -147 0
-141 218 0
-141 215 0
141 -218 -215 0
142 -4 0
142 -3 0
142 -6 0
142 -5 0
142 -8 0
142 -51 0
142 -49 0
142 -143 0
142 -140 0
142 -141 0
-142 4 3 6 5 8 51 49 143 140 141 0
-143 187 0
-143 63 0
143 -187 -63 0
-144 138 0
-144 103 0
144 -138 -103 0
145 -97 0
145 -1 0
-145 97 1 0
146 -82 0
146 -85 0
146 -86 0
146 -74 0
146 -84 0
146 -73 0
146 -95 0
146 -79 0
146 -76 0
146 -75 0
146 -51 0
146 -173 0
146 -153 0
146 -165 0
146 -213 0
146 -26 0
146 -22 0
-146 82 85 86 74 84 73 95 79 76 75 51 173 153 165 213 26 22 0
-147 59 0
147 -59 0
148 -80 0
148 -77 0
148 -67 0
148 -6 0
148 -5 0
148 -8 0
148 -59 0
148 -107 0
148 -157 0
148 -214 0
-148 80 77 67 6 5 8 59 107 157 214 0
149 -27 0
149 -150 0
-149 27 150 0
-150 232 0
-150 174 0
150 -232 -174 0
-151 190 0
-151 37 0
151 -190 -37 0
-152 194 0
-152 13 0
152 -194 -13 0
-153 195 0
-153 12 0
153 -195 -12 0
-154 232 0
-154 155 0
154 -232 -155 0
155 -23 0
155 -24 0
-155 23 24 0
156 -54 0
156 -123 0
156 -122 0
-156 54 123 122 0
-157 186 0
-157 164 0
157 -186 -164 0
158 -61 0
158 -76 0
158 -75 0
158 -5 0
158 -133 0
158 -110 0
158 -62 0
-158 61 76 75 5 133 110 62 0
159 -85 0
159 -72 0
159 -71 0
159 -86 0
159 -89 0
159 -8 0
159 -135 0
159 -217 0
159 -179 0
159 -68 0
-159 85 72 71 86 89 8 135 217 179 68 0
160 -82 0
160 -85 0
160 -86 0
160 -74 0
160 -84 0
160 -73 0
160 -76 0
160 -75 0
160 -51 0
160 -161 0
160 -166 0
160 -165 0
160 -213 0
160 -70 0
160 -69 0
-160 82 85 86 74 84 73 76 75 51 161 166 165 213 70 69 0
-161 167 0
-161 21 0
161 -167 -21 0
162 -83 0
162 -84 0
162 -87 0
162 -104 0
162 -81 0
162 -117 0
162 -135 0
-162 83 84 87 104 81 117 135 0
-163 180 0
-163 162 0
163 -180 -162 0
164 -82 0
164 -85 0
164 -86 0
164 -74 0
164 -84 0
164 -73 0
164 -95 0
164 -79 0
164 -76 0
164 -75 0
164 -51 0
164 -161 0
164 -166 0
164 -165 0
164 -213 0
164 -70 0
164 -69 0
-164 82 85 86 74 84 73 95 79 76 75 51 161 166 165 213 70 69 0
-165 177 0
-165 112 0
165 -177 -112 0
-166 189 0
-166 12 0
166 -189 -12 0
167 -29 0
167 -171 0
-167 29 171 0
168 -16 0
168 -15 0
-168 16 15 0
169 -11 0
169 -24 0
-169 11 24 0
-170 232 0
-170 231 0
-170 169 0
-170 168 0
170 -232 -231 -169 -168 0
-171 231 0
-171 196 0
171 -231 -196 0
172 -30 0
172 -175 0
-172 30 175 0
-173 172 0
-173 21 0
173 -172 -21 0
174 -47 0
174 -24 0
-174 47 24 0
-175 231 0
-175 191 0
175 -231 -191 0
-176 60 0
176 -60 0
177 -10 0
177 -72 0
177 -32 0
177 -83 0
177 -31 0
177 -230 0
177 -131 0
-177 10 72 32 83 31 230 131 0
178 -7 0
178 -89 0
178 -88 0
178 -87 0
178 -96 0
178 -144 0
-178 7 89 88 87 96 144 0
-179 180 0
-179 181 0
179 -180 -181 0
180 -32 0
180 -93 0
180 -20 0
180 -74 0
180 -88 0
180 -139 0
180 -235 0
-180 32 93 20 74 88 139 235 0
181 -83 0
181 -84 0
181 -87 0
181 -104 0
181 -81 0
181 -117 0
-181 83 84 87 104 81 117 0
182 -95 0
182 -79 0
182 -80 0
182 -77 0
182 -78 0
182 -183 0
182 -184 0
-182 95 79 80 77 78 183 184 0
-183 121 0
-183 114 0
183 -121 -114 0
-184 124 0
-184 210 0
184 -124 -210 0
-185 186 0
-185 160 0
185 -186 -160 0
-186 3 0
186 -3 0
187 -42 0
187 -57 0
187 -58 0
187 -43 0
187 -35 0
187 -33 0
187 -39 0
187 -38 0
-187 42 57 58 43 35 33 39 38 0
188 -46 0
188 -170 0
-188 46 170 0
189 -44 0
189 -170 0
-189 44 170 0
190 -41 0
190 -154 0
-190 41 154 0
191 -17 0
191 -15 0
-191 17 15 0
192 -19 0
192 -64 0
192 -57 0
192 -43 0
192 -36 0
192 -35 0
192 -40 0
192 -38 0
-192 19 64 57 43 36 35 40 38 0
-193 232 0
-193 231 0
-193 174 0
-193 196 0
193 -232 -231 -174 -196 0
194 -18 0
194 -193 0
-194 18 193 0
195 -14 0
195 -193 0
-195 14 193 0
196 -45 0
196 -15 0
-196 45 15 0
-197 232 0
-197 145 0
-197 126 0
197 -232 -145 -126 0
198 -60 0
198 -197 0
-198 60 197 0
199 -85 0
199 -72 0
199 -71 0
199 -86 0
199 -89 0
199 -135 0
199 -217 0
199 -179 0
199 -68 0
-199 85 72 71 86 89 135 217 179 68 0
200 -61 0
200 -76 0
200 -75 0
200 -133 0
200 -110 0
200 -62 0
-200 61 76 75 133 110 62 0
-201 227 0
-201 115 0
201 -227 -115 0
-202 225 0
-202 224 0
202 -225 -224 0
-203 226 0
-203 63 0
203 -226 -63 0
-204 200 0
-204 199 0
204 -200 -199 0
205 -56 0
205 -80 0
205 -55 0
205 -51 0
205 -120 0
205 -119 0
205 -118 0
-205 56 80 55 51 120 119 118 0
-206 205 0
-206 111 0
206 -205 -111 0
207 -66 0
207 -57 0
207 -58 0
207 -36 0
207 -35 0
207 -34 0
207 -40 0
207 -39 0
-207 66 57 58 36 35 34 40 39 0
208 -64 0
208 -65 0
208 -57 0
208 -34 0
208 -33 0
208 -40 0
208 -39 0
208 -38 0
-208 64 65 57 34 33 40 39 38 0
209 -82 0
209 -85 0
209 -86 0
209 -74 0
209 -84 0
209 -73 0
209 -76 0
209 -75 0
209 -51 0
209 -161 0
209 -166 0
209 -107 0
209 -165 0
209 -213 0
209 -70 0
209 -69 0
-209 82 85 86 74 84 73 76 75 51 161 166 107 165 213 70 69 0
210 -56 0
210 -67 0
210 -6 0
210 -5 0
210 -8 0
210 -59 0
210 -55 0
210 -51 0
210 -216 0
210 -202 0
210 -201 0
210 -204 0
210 -203 0
-210 56 67 6 5 8 59 55 51 216 202 201 204 203 0
211 -86 0
211 -74 0
211 -84 0
211 -73 0
211 -95 0
211 -76 0
211 -130 0
211 -166 0
211 -134 0
211 -70 0
-211 86 74 84 73 95 76 130 166 134 70 0
212 -82 0
212 -85 0
212 -79 0
212 -75 0
212 -223 0
212 -161 0
212 -69 0
-212 82 85 79 75 223 161 69 0
-213 231 0
-213 198 0
213 -231 -198 0
-214 211 0
-214 212 0
214 -211 -212 0
215 -82 0
215 -85 0
215 -79 0
215 -75 0
215 -223 0
215 -173 0
215 -22 0
-215 82 85 79 75 223 173 22 0
-216 209 0
-216 186 0
216 -209 -186 0
-217 188 0
-217 13 0
217 -188 -13 0
218 -86 0
218 -74 0
218 -84 0
218 -73 0
218 -95 0
218 -76 0
218 -130 0
218 -153 0
218 -134 0
218 -26 0
-218 86 74 84 73 95 76 130 153 134 26 0
219 -85 0
219 -72 0
219 -71 0
219 -86 0
219 -89 0
219 -8 0
219 -135 0
219 -152 0
219 -179 0
219 -28 0
-219 85 72 71 86 89 8 135 152 179 28 0
220 -61 0
220 -76 0
220 -75 0
220 -5 0
220 -133 0
220 -151 0
220 -25 0
-220 61 76 75 5 133 151 25 0
221 -90 0
221 -228 0
-221 90 228 0
-222 232 0
-222 221 0
222 -232 -221 0
-223 231 0
-223 176 0
223 -231 -176 0
224 -82 0
224 -85 0
224 -75 0
224 -223 0
224 -161 0
224 -69 0
-224 82 85 75 223 161 69 0
225 -86 0
225 -74 0
225 -84 0
225 -73 0
225 -76 0
225 -130 0
225 -166 0
225 -134 0
225 -70 0
-225 86 74 84 73 76 130 166 134 70 0
226 -64 0
226 -65 0
226 -66 0
226 -57 0
226 -58 0
226 -36 0
226 -35 0
226 -34 0
226 -33 0
226 -40 0
226 -39 0
226 -38 0
-226 64 65 66 57 58 36 35 34 33 40 39 38 0
227 -85 0
227 -72 0
227 -71 0
227 -61 0
227 -86 0
227 -76 0
227 -75 0
227 -89 0
227 -110 0
227 -217 0
227 -120 0
227 -163 0
227 -222 0
227 -68 0
227 -62 0
-227 85 72 71 61 86 76 75 89 110 217 120 163 222 68 62 0
-228 231 0
-228 129 0
-228 128 0
228 -231 -129 -128 0
-229 7 0
229 -7 0
-230 229 0
-230 48 0
230 -229 -48 0
-231 91 0
231 -91 0
-232 94 0
232 -94 0
233 -100 0
233 -99 0
-233 100 99 0
234 -101 0
234 -102 0
-234 101 102 0
-235 234 0
-235 233 0
-235 232 0
-235 231 0
235 -234 -233 -232 -231 0
-236 220 0
-236 219 0
236 -220 -219 0
-237 108 0
-237 109 0
237 -108 -109 0
-238 192 0
-238 63 0
238 -192 -63 0
